c uprop, v00.0, 
c reading from data/prog54.c.cnf
c done reading: 0.005159
p cnf 97 378
-45 -60 0
-48 -60 0
45 48 60 0
45 48 -65 0
-45 -48 -65 0
-45 48 65 0
45 -48 65 0
-51 60 0
-51 -53 0
51 53 -60 0
53 -56 -60 0
-53 -56 60 0
53 56 60 0
-53 56 -60 0
51 -59 0
-59 -62 0
-51 59 62 0
-51 62 -63 0
51 -62 -63 0
51 62 63 0
-51 -62 63 0
59 -64 0
-64 -66 0
-59 64 66 0
-47 -59 66 0
-47 59 -66 0
47 59 66 0
47 -59 -66 0
-43 64 0
-43 -50 0
43 50 -64 0
-42 50 -64 0
-42 -50 64 0
42 50 64 0
42 -50 -64 0
-41 43 0
-41 -54 0
41 -43 54 0
-40 -43 54 0
-40 43 -54 0
40 43 54 0
40 -43 -54 0
-39 41 0
-39 -58 0
39 -41 58 0
-38 -41 58 0
-38 41 -58 0
38 41 58 0
38 -41 -58 0
-37 -45 0
-37 -48 0
37 45 48 0
-36 45 48 0
-36 -45 -48 0
36 -45 48 0
36 45 -48 0
-35 37 0
-35 -53 0
35 -37 53 0
-34 -37 53 0
-34 37 -53 0
34 37 53 0
34 -37 -53 0
-33 35 0
-33 -62 0
33 -35 62 0
-32 -35 62 0
-32 35 -62 0
32 35 62 0
32 -35 -62 0
-31 33 0
-31 -66 0
31 -33 66 0
-33 66 -67 0
33 -66 -67 0
33 66 67 0
-33 -66 67 0
31 -68 0
-50 -68 0
-31 50 68 0
-31 50 -69 0
31 -50 -69 0
31 50 69 0
-31 -50 69 0
68 -70 0
-54 -70 0
54 -68 70 0
54 -68 -71 0
-54 68 -71 0
54 68 71 0
-54 -68 71 0
70 -72 0
-58 -72 0
58 -70 72 0
-46 58 -70 0
-46 -58 70 0
46 58 70 0
46 -58 -70 0
-55 -74 0
55 74 0
-75 -77 0
75 77 0
-79 -80 0
79 80 0
-76 -81 0
76 81 0
-82 -84 0
82 84 0
74 -85 0
-74 85 0
-74 -86 0
74 86 0
-75 87 0
-75 -85 87 0
-85 87 0
75 85 -87 0
75 -87 -88 0
85 -87 -88 0
-75 87 88 0
87 88 0
-85 87 88 0
-75 -85 88 0
-79 -87 89 0
79 -89 0
79 87 -89 0
87 -89 0
79 -89 -90 0
-89 -90 0
87 -89 -90 0
-79 89 90 0
-87 89 90 0
79 87 -90 0
-74 -81 91 0
-81 -89 91 0
-74 -89 91 0
74 81 -91 0
81 89 -91 0
74 89 -91 0
81 -91 -92 0
74 -91 -92 0
89 -91 -92 0
-81 91 92 0
-74 91 92 0
-89 91 92 0
-74 -81 -89 92 0
74 81 89 -92 0
-75 -84 93 0
-84 -91 93 0
-75 -91 93 0
75 84 -93 0
84 91 -93 0
75 91 -93 0
84 -93 -94 0
75 -93 -94 0
91 -93 -94 0
-84 93 94 0
-75 93 94 0
-91 93 94 0
-75 -84 -91 94 0
75 84 91 -94 0
79 -95 0
93 -95 0
-79 -93 95 0
-79 -93 -96 0
79 93 -96 0
-79 93 96 0
79 -93 96 0
81 -97 0
95 -97 0
-81 -95 97 0
-30 -81 -95 0
-30 81 95 0
30 -81 95 0
30 81 -95 0
-29 84 0
-29 97 0
29 -84 -97 0
-28 -84 -97 0
-28 84 97 0
28 -84 97 0
28 84 -97 0
-27 88 0
27 -88 0
-26 -88 0
26 88 0
25 -90 0
25 -27 -90 0
25 -27 0
-25 27 90 0
-24 -25 90 0
-24 -25 27 0
24 25 -90 0
24 25 0
24 25 -27 0
24 -27 -90 0
23 -25 -92 0
-23 92 0
-23 25 92 0
-23 25 0
-22 -23 92 0
-22 -23 0
-22 -23 25 0
22 23 -92 0
22 23 -25 0
-22 25 92 0
21 -74 -94 0
21 -23 -94 0
21 -23 -74 0
-21 74 94 0
-21 23 94 0
-21 23 74 0
-20 -21 94 0
-20 -21 74 0
-20 -21 23 0
20 21 -94 0
20 21 -74 0
20 21 -23 0
20 -23 -74 -94 0
-20 23 74 94 0
19 -75 -96 0
19 -21 -96 0
19 -21 -75 0
-19 75 96 0
-19 21 96 0
-19 21 75 0
-18 -19 96 0
-18 -19 75 0
-18 -19 21 0
18 19 -96 0
18 19 -75 0
18 19 -21 0
18 -21 -75 -96 0
-18 21 75 96 0
17 -30 -79 0
17 -19 -30 0
17 -19 -79 0
-17 30 79 0
-17 19 30 0
-17 19 79 0
-16 -17 30 0
-16 -17 79 0
-16 -17 19 0
16 17 -30 0
16 17 -79 0
16 17 -19 0
16 -19 -30 -79 0
-16 19 30 79 0
15 -28 -81 0
15 -17 -28 0
15 -17 -81 0
-15 28 81 0
-15 17 28 0
-15 17 81 0
-14 -15 28 0
-14 -15 81 0
-14 -15 17 0
14 15 -28 0
14 15 -81 0
14 15 -17 0
14 -17 -28 -81 0
-14 17 28 81 0
13 -29 -84 0
13 -15 -29 0
13 -15 -84 0
-13 29 84 0
-13 15 29 0
-13 15 84 0
-12 -13 29 0
-12 -13 84 0
-12 -13 15 0
12 13 -29 0
12 13 -84 0
12 13 -15 0
12 -15 -29 -84 0
-12 15 29 84 0
-11 -86 0
11 86 0
-10 -26 0
10 26 0
-9 -24 0
9 24 0
-8 -22 0
8 22 0
-7 -20 0
7 20 0
-6 -18 0
6 18 0
-5 -16 0
5 16 0
-4 -14 0
4 14 0
-12 -44 0
12 44 0
-13 -52 0
13 52 0
45 -61 0
-61 86 0
-45 61 -86 0
-45 -86 0
45 86 0
-26 -48 49 0
-48 49 -61 0
-26 49 -61 0
26 48 -49 0
48 -49 61 0
26 -49 61 0
48 -49 0
26 -49 0
-49 61 0
26 48 61 0
-24 -53 57 0
-49 -53 57 0
-24 -49 57 0
24 53 -57 0
49 53 -57 0
24 49 -57 0
53 -57 0
24 -57 0
49 -57 0
24 49 53 0
3 -22 -62 0
3 -57 -62 0
3 -22 -57 0
-3 22 62 0
-3 57 62 0
-3 22 57 0
3 -62 0
3 -22 0
3 -57 0
-22 -57 -62 0
-20 -66 73 0
-3 -66 73 0
-3 -20 73 0
20 66 -73 0
3 66 -73 0
3 20 -73 0
-66 73 0
-20 73 0
-3 73 0
-3 -20 -66 0
-18 -50 78 0
-50 -73 78 0
-18 -73 78 0
18 50 -78 0
50 73 -78 0
18 73 -78 0
-50 78 0
-18 78 0
-73 78 0
-18 -50 -73 0
-16 -54 83 0
-54 -78 83 0
-16 -78 83 0
16 54 -83 0
54 78 -83 0
16 78 -83 0
-54 83 0
-16 83 0
-78 83 0
-16 -54 -78 0
2 -14 -58 0
2 -58 -83 0
2 -14 -83 0
-2 14 58 0
-2 58 83 0
-2 14 83 0
2 -58 0
2 -14 0
2 -83 0
-14 -58 -83 0
-1 12 0
-1 2 0
1 -2 -12 0
2 -12 0
-2 12 0
-1 -13 0
1 -13 0
-1 13 0
